local_stuff/loop_inv_stuff/loop_inv_backup/repo/z3/74.out
STDOUT:
(error "line 6 column 82: invalid function application, arguments missing")
(error "line 8 column 71: invalid function application, arguments missing")
sat
(
  (define-fun inv ((x!0 Int) (x!1 Int)) Bool
    true)
)


STDERR:
